50 115
59 259 4
73 171 6
56 106 1
190 290 1
82 177 4
112 118 1
44 131 1
112 266 1
43 266 1
94 313 4
84 314 3
106 238 3
75 121 2
55 106 1
39 204 2
81 191 2
58 274 2
80 155 1
71 211 1
63 198 2
73 194 4
123 340 1
120 237 3
82 327 2
82 144 2
77 144 1
120 171 2
73 252 4
71 154 2
65 80 2
86 86 1
101 151 2
130 320 4
84 116 2
180 278 2
68 307 4
67 207 1
76 290 2
43 212 2
81 255 2
63 255 2
79 207 2
69 299 6
69 298 2
75 206 2
90 195 2
75 195 4
75 183 3
75 137 2
90 126 2
500 1000 
500 1000 
500 1000 
500 1000 
500 1000 
500 1000 
500 1000 
500 1000 
500 1000 
500 1000 
500 1000 
500 1000 
500 1000 
500 1000 
500 1000 
500 1000 
500 1000 
500 1000 
500 1000 
500 1000 
500 1000 
500 1000 
500 1000 
500 1000 
500 1000 
500 1000 
500 1000 
500 1000 
500 1000 
500 1000 
500 1000 
500 1000 
500 1000 
500 1000 
500 1000 
500 1000 
500 1000 
500 1000 
500 1000 
500 1000 
500 1000 
500 1000 
500 1000 
500 1000 
500 1000 
500 1000 
500 1000 
500 1000 
500 1000 
500 1000 
500 1000 
500 1000 
500 1000 
500 1000 
500 1000 
500 1000 
500 1000 
500 1000 
500 1000 
500 1000 
500 1000 
500 1000 
500 1000 
500 1000 
500 1000 
500 1000 
500 1000 
500 1000 
500 1000 
500 1000 
500 1000 
500 1000 
500 1000 
500 1000 
500 1000 
500 1000 
500 1000 
500 1000 
500 1000 
500 1000 
500 1000 
500 1000 
500 1000 
500 1000 
500 1000 
500 1000 
500 1000 
500 1000 
500 1000 
500 1000 
500 1000 
500 1000 
500 1000 
500 1000 
500 1000 
500 1000 
500 1000 
500 1000 
500 1000 
500 1000 
500 1000 
500 1000 
500 1000 
500 1000 
500 1000 
500 1000 
500 1000 
500 1000 
500 1000 
500 1000 
500 1000 
500 1000 
500 1000 
500 1000 
500 1000 
